c Reduced graph for r14 generated by Cyril Grelier
p edge 214 2387
e 1 3
e 1 12
e 1 26
e 1 28
e 1 48
e 1 49
e 1 51
e 1 61
e 1 69
e 1 75
e 1 79
e 1 80
e 1 128
e 1 129
e 1 130
e 1 141
e 1 142
e 1 145
e 1 153
e 1 161
e 1 164
e 1 173
e 1 202
e 2 13
e 2 14
e 2 21
e 2 34
e 2 36
e 2 52
e 2 66
e 2 85
e 2 88
e 2 100
e 2 103
e 2 109
e 2 131
e 2 133
e 2 135
e 2 145
e 2 150
e 2 159
e 2 167
e 2 172
e 2 182
e 2 183
e 2 191
e 2 196
e 2 204
e 3 6
e 3 12
e 3 26
e 3 28
e 3 43
e 3 69
e 3 80
e 3 97
e 3 103
e 3 126
e 3 128
e 3 130
e 3 137
e 3 142
e 3 145
e 3 153
e 3 155
e 3 165
e 3 170
e 3 207
e 4 23
e 4 39
e 4 53
e 4 68
e 4 73
e 4 76
e 4 107
e 4 115
e 4 117
e 4 125
e 4 128
e 4 144
e 4 150
e 4 151
e 4 152
e 4 164
e 4 170
e 4 175
e 4 181
e 4 200
e 4 211
e 5 20
e 5 27
e 5 63
e 5 70
e 5 72
e 5 76
e 5 80
e 5 81
e 5 83
e 5 118
e 5 132
e 5 139
e 5 148
e 5 158
e 5 163
e 5 181
e 5 196
e 5 212
e 6 18
e 6 43
e 6 50
e 6 54
e 6 60
e 6 72
e 6 90
e 6 97
e 6 103
e 6 110
e 6 116
e 6 124
e 6 126
e 6 129
e 6 137
e 6 143
e 6 155
e 6 165
e 6 170
e 6 172
e 6 188
e 6 207
e 7 16
e 7 17
e 7 19
e 7 20
e 7 30
e 7 33
e 7 46
e 7 62
e 7 70
e 7 79
e 7 82
e 7 94
e 7 112
e 7 123
e 7 134
e 7 144
e 7 169
e 7 171
e 7 175
e 7 179
e 7 182
e 7 189
e 7 201
e 8 11
e 8 29
e 8 31
e 8 40
e 8 44
e 8 45
e 8 55
e 8 57
e 8 63
e 8 65
e 8 89
e 8 97
e 8 117
e 8 121
e 8 123
e 8 127
e 8 146
e 8 153
e 8 159
e 8 183
e 8 192
e 8 193
e 8 194
e 8 198
e 9 15
e 9 28
e 9 32
e 9 34
e 9 35
e 9 47
e 9 67
e 9 71
e 9 77
e 9 78
e 9 84
e 9 93
e 9 95
e 9 106
e 9 112
e 9 113
e 9 124
e 9 125
e 9 127
e 9 133
e 9 134
e 9 149
e 9 157
e 9 161
e 9 174
e 9 194
e 9 207
e 10 17
e 10 21
e 10 25
e 10 26
e 10 51
e 10 60
e 10 74
e 10 82
e 10 89
e 10 91
e 10 108
e 10 120
e 10 149
e 10 154
e 10 157
e 10 160
e 10 163
e 10 192
e 10 200
e 10 203
e 10 209
e 11 18
e 11 25
e 11 40
e 11 41
e 11 44
e 11 45
e 11 55
e 11 57
e 11 65
e 11 89
e 11 97
e 11 106
e 11 117
e 11 123
e 11 131
e 11 138
e 11 140
e 11 159
e 11 180
e 11 185
e 11 194
e 11 212
e 12 19
e 12 26
e 12 28
e 12 40
e 12 69
e 12 78
e 12 80
e 12 83
e 12 90
e 12 100
e 12 102
e 12 111
e 12 119
e 12 122
e 12 128
e 12 130
e 12 142
e 12 145
e 12 153
e 12 186
e 13 14
e 13 42
e 13 44
e 13 46
e 13 52
e 13 58
e 13 73
e 13 86
e 13 93
e 13 96
e 13 98
e 13 99
e 13 100
e 13 103
e 13 116
e 13 118
e 13 131
e 13 133
e 13 135
e 13 136
e 13 182
e 13 183
e 13 196
e 13 204
e 14 52
e 14 56
e 14 67
e 14 87
e 14 100
e 14 103
e 14 105
e 14 131
e 14 133
e 14 135
e 14 143
e 14 160
e 14 179
e 14 182
e 14 183
e 14 196
e 14 204
e 14 210
e 15 28
e 15 32
e 15 35
e 15 43
e 15 71
e 15 75
e 15 77
e 15 85
e 15 96
e 15 105
e 15 113
e 15 120
e 15 124
e 15 125
e 15 133
e 15 134
e 15 138
e 15 157
e 15 162
e 15 174
e 15 187
e 15 194
e 15 198
e 15 213
e 16 17
e 16 19
e 16 20
e 16 30
e 16 46
e 16 52
e 16 53
e 16 57
e 16 79
e 16 91
e 16 134
e 16 142
e 16 144
e 16 156
e 16 166
e 16 179
e 16 184
e 16 187
e 16 189
e 16 199
e 16 205
e 17 19
e 17 20
e 17 26
e 17 30
e 17 46
e 17 60
e 17 74
e 17 79
e 17 89
e 17 108
e 17 120
e 17 134
e 17 144
e 17 149
e 17 179
e 17 189
e 17 203
e 18 25
e 18 41
e 18 50
e 18 54
e 18 60
e 18 72
e 18 90
e 18 106
e 18 110
e 18 116
e 18 124
e 18 129
e 18 131
e 18 138
e 18 140
e 18 143
e 18 172
e 18 180
e 18 185
e 18 188
e 18 212
e 19 20
e 19 30
e 19 40
e 19 46
e 19 78
e 19 79
e 19 83
e 19 90
e 19 100
e 19 102
e 19 111
e 19 119
e 19 122
e 19 134
e 19 144
e 19 179
e 19 186
e 19 189
e 20 30
e 20 46
e 20 72
e 20 76
e 20 79
e 20 80
e 20 81
e 20 132
e 20 134
e 20 139
e 20 144
e 20 148
e 20 158
e 20 163
e 20 179
e 20 189
e 20 196
e 21 25
e 21 34
e 21 36
e 21 51
e 21 66
e 21 82
e 21 85
e 21 88
e 21 91
e 21 109
e 21 145
e 21 150
e 21 154
e 21 157
e 21 159
e 21 160
e 21 163
e 21 167
e 21 172
e 21 191
e 21 192
e 21 200
e 21 209
e 22 31
e 22 32
e 22 38
e 22 41
e 22 55
e 22 92
e 22 94
e 22 98
e 22 102
e 22 104
e 22 109
e 22 110
e 22 115
e 22 147
e 22 152
e 22 154
e 22 156
e 22 189
e 22 195
e 22 202
e 22 206
e 22 208
e 22 214
e 23 24
e 23 27
e 23 45
e 23 50
e 23 53
e 23 59
e 23 69
e 23 73
e 23 76
e 23 84
e 23 104
e 23 115
e 23 125
e 23 150
e 23 151
e 23 164
e 23 170
e 23 175
e 23 176
e 23 190
e 23 209
e 23 211
e 23 213
e 24 27
e 24 45
e 24 48
e 24 50
e 24 58
e 24 59
e 24 66
e 24 69
e 24 84
e 24 92
e 24 104
e 24 107
e 24 139
e 24 174
e 24 176
e 24 190
e 24 193
e 24 201
e 24 205
e 24 209
e 24 213
e 25 41
e 25 51
e 25 82
e 25 91
e 25 106
e 25 131
e 25 138
e 25 140
e 25 154
e 25 157
e 25 160
e 25 163
e 25 180
e 25 185
e 25 192
e 25 200
e 25 209
e 25 212
e 26 28
e 26 60
e 26 69
e 26 74
e 26 80
e 26 89
e 26 108
e 26 120
e 26 128
e 26 130
e 26 142
e 26 145
e 26 149
e 26 153
e 26 203
e 27 45
e 27 50
e 27 59
e 27 63
e 27 69
e 27 70
e 27 83
e 27 84
e 27 104
e 27 118
e 27 176
e 27 181
e 27 190
e 27 209
e 27 212
e 27 213
e 28 32
e 28 35
e 28 69
e 28 71
e 28 77
e 28 80
e 28 113
e 28 124
e 28 125
e 28 128
e 28 130
e 28 133
e 28 134
e 28 142
e 28 145
e 28 153
e 28 157
e 28 174
e 28 194
e 29 31
e 29 33
e 29 36
e 29 63
e 29 64
e 29 121
e 29 127
e 29 136
e 29 137
e 29 146
e 29 147
e 29 153
e 29 158
e 29 168
e 29 176
e 29 183
e 29 186
e 29 192
e 29 193
e 29 198
e 29 203
e 29 210
e 30 37
e 30 46
e 30 54
e 30 65
e 30 79
e 30 95
e 30 134
e 30 135
e 30 144
e 30 168
e 30 178
e 30 179
e 30 189
e 30 197
e 30 211
e 30 214
e 31 32
e 31 41
e 31 63
e 31 94
e 31 98
e 31 102
e 31 104
e 31 109
e 31 121
e 31 127
e 31 146
e 31 152
e 31 153
e 31 156
e 31 183
e 31 192
e 31 193
e 31 198
e 31 202
e 31 208
e 31 214
e 32 35
e 32 41
e 32 71
e 32 77
e 32 94
e 32 98
e 32 102
e 32 104
e 32 109
e 32 113
e 32 124
e 32 125
e 32 133
e 32 134
e 32 152
e 32 156
e 32 157
e 32 174
e 32 194
e 32 202
e 32 208
e 32 214
e 33 36
e 33 62
e 33 64
e 33 70
e 33 82
e 33 94
e 33 112
e 33 123
e 33 136
e 33 137
e 33 147
e 33 158
e 33 168
e 33 169
e 33 171
e 33 175
e 33 176
e 33 182
e 33 186
e 33 201
e 33 203
e 33 210
e 34 36
e 34 47
e 34 66
e 34 67
e 34 78
e 34 84
e 34 85
e 34 88
e 34 93
e 34 95
e 34 106
e 34 109
e 34 112
e 34 127
e 34 145
e 34 149
e 34 150
e 34 159
e 34 161
e 34 167
e 34 172
e 34 191
e 34 207
e 35 39
e 35 56
e 35 59
e 35 71
e 35 77
e 35 99
e 35 111
e 35 113
e 35 114
e 35 121
e 35 124
e 35 125
e 35 133
e 35 134
e 35 157
e 35 165
e 35 173
e 35 174
e 35 185
e 35 191
e 35 194
e 35 197
e 36 64
e 36 66
e 36 85
e 36 88
e 36 109
e 36 136
e 36 137
e 36 145
e 36 147
e 36 150
e 36 158
e 36 159
e 36 167
e 36 168
e 36 172
e 36 176
e 36 186
e 36 191
e 36 203
e 36 210
e 37 38
e 37 54
e 37 65
e 37 74
e 37 77
e 37 86
e 37 87
e 37 88
e 37 95
e 37 135
e 37 148
e 37 166
e 37 168
e 37 171
e 37 178
e 37 197
e 37 211
e 37 214
e 38 55
e 38 74
e 38 77
e 38 86
e 38 87
e 38 88
e 38 92
e 38 110
e 38 115
e 38 147
e 38 148
e 38 154
e 38 166
e 38 171
e 38 189
e 38 195
e 38 206
e 39 56
e 39 59
e 39 68
e 39 99
e 39 107
e 39 111
e 39 114
e 39 117
e 39 121
e 39 128
e 39 144
e 39 152
e 39 165
e 39 173
e 39 181
e 39 185
e 39 191
e 39 197
e 39 200
e 40 44
e 40 45
e 40 55
e 40 57
e 40 65
e 40 78
e 40 83
e 40 89
e 40 90
e 40 97
e 40 100
e 40 102
e 40 111
e 40 117
e 40 119
e 40 122
e 40 123
e 40 159
e 40 186
e 40 194
e 41 94
e 41 98
e 41 102
e 41 104
e 41 106
e 41 109
e 41 131
e 41 138
e 41 140
e 41 152
e 41 156
e 41 180
e 41 185
e 41 202
e 41 208
e 41 212
e 41 214
e 42 44
e 42 46
e 42 49
e 42 58
e 42 71
e 42 73
e 42 86
e 42 93
e 42 96
e 42 98
e 42 99
e 42 101
e 42 116
e 42 118
e 42 126
e 42 132
e 42 136
e 42 140
e 42 146
e 42 167
e 42 169
e 42 184
e 43 75
e 43 85
e 43 96
e 43 97
e 43 103
e 43 105
e 43 120
e 43 126
e 43 137
e 43 138
e 43 155
e 43 162
e 43 165
e 43 170
e 43 187
e 43 198
e 43 207
e 43 213
e 44 45
e 44 46
e 44 55
e 44 57
e 44 58
e 44 65
e 44 73
e 44 86
e 44 89
e 44 93
e 44 96
e 44 97
e 44 98
e 44 99
e 44 116
e 44 117
e 44 118
e 44 123
e 44 136
e 44 159
e 44 194
e 45 50
e 45 55
e 45 57
e 45 59
e 45 65
e 45 69
e 45 84
e 45 89
e 45 97
e 45 104
e 45 117
e 45 123
e 45 159
e 45 176
e 45 190
e 45 194
e 45 209
e 45 213
e 46 58
e 46 73
e 46 79
e 46 86
e 46 93
e 46 96
e 46 98
e 46 99
e 46 116
e 46 118
e 46 134
e 46 136
e 46 144
e 46 179
e 46 189
e 47 64
e 47 67
e 47 78
e 47 84
e 47 93
e 47 95
e 47 101
e 47 106
e 47 112
e 47 114
e 47 127
e 47 130
e 47 149
e 47 151
e 47 161
e 47 162
e 47 177
e 47 188
e 47 204
e 47 207
e 47 208
e 48 49
e 48 51
e 48 58
e 48 61
e 48 66
e 48 75
e 48 79
e 48 92
e 48 107
e 48 129
e 48 139
e 48 141
e 48 161
e 48 164
e 48 173
e 48 174
e 48 193
e 48 201
e 48 202
e 48 205
e 49 51
e 49 61
e 49 71
e 49 75
e 49 79
e 49 101
e 49 126
e 49 129
e 49 132
e 49 140
e 49 141
e 49 146
e 49 161
e 49 164
e 49 167
e 49 169
e 49 173
e 49 184
e 49 202
e 50 54
e 50 59
e 50 60
e 50 69
e 50 72
e 50 84
e 50 90
e 50 104
e 50 110
e 50 116
e 50 124
e 50 129
e 50 143
e 50 172
e 50 176
e 50 188
e 50 190
e 50 209
e 50 213
e 51 61
e 51 75
e 51 79
e 51 82
e 51 91
e 51 129
e 51 141
e 51 154
e 51 157
e 51 160
e 51 161
e 51 163
e 51 164
e 51 173
e 51 192
e 51 200
e 51 202
e 51 209
e 52 53
e 52 57
e 52 91
e 52 100
e 52 103
e 52 131
e 52 133
e 52 135
e 52 142
e 52 156
e 52 166
e 52 182
e 52 183
e 52 184
e 52 187
e 52 196
e 52 199
e 52 204
e 52 205
e 53 57
e 53 73
e 53 76
e 53 91
e 53 115
e 53 125
e 53 142
e 53 150
e 53 151
e 53 156
e 53 164
e 53 166
e 53 170
e 53 175
e 53 184
e 53 187
e 53 199
e 53 205
e 53 211
e 54 60
e 54 65
e 54 72
e 54 90
e 54 95
e 54 110
e 54 116
e 54 124
e 54 129
e 54 135
e 54 143
e 54 168
e 54 172
e 54 178
e 54 188
e 54 197
e 54 211
e 54 214
e 55 57
e 55 65
e 55 89
e 55 92
e 55 97
e 55 110
e 55 115
e 55 117
e 55 123
e 55 147
e 55 154
e 55 159
e 55 189
e 55 194
e 55 195
e 55 206
e 56 59
e 56 67
e 56 87
e 56 99
e 56 105
e 56 111
e 56 114
e 56 121
e 56 143
e 56 160
e 56 165
e 56 173
e 56 179
e 56 185
e 56 191
e 56 197
e 56 210
e 57 65
e 57 89
e 57 91
e 57 97
e 57 117
e 57 123
e 57 142
e 57 156
e 57 159
e 57 166
e 57 184
e 57 187
e 57 194
e 57 199
e 57 205
e 58 66
e 58 73
e 58 86
e 58 92
e 58 93
e 58 96
e 58 98
e 58 99
e 58 107
e 58 116
e 58 118
e 58 136
e 58 139
e 58 174
e 58 193
e 58 201
e 58 205
e 59 69
e 59 84
e 59 99
e 59 104
e 59 111
e 59 114
e 59 121
e 59 165
e 59 173
e 59 176
e 59 185
e 59 190
e 59 191
e 59 197
e 59 209
e 59 213
e 60 72
e 60 74
e 60 89
e 60 90
e 60 108
e 60 110
e 60 116
e 60 120
e 60 124
e 60 129
e 60 143
e 60 149
e 60 172
e 60 188
e 60 203
e 61 75
e 61 79
e 61 81
e 61 108
e 61 113
e 61 119
e 61 129
e 61 141
e 61 161
e 61 164
e 61 173
e 61 177
e 61 178
e 61 180
e 61 199
e 61 202
e 61 206
e 62 68
e 62 70
e 62 82
e 62 94
e 62 112
e 62 122
e 62 123
e 62 141
e 62 155
e 62 169
e 62 171
e 62 175
e 62 182
e 62 190
e 62 195
e 62 201
e 63 70
e 63 83
e 63 118
e 63 121
e 63 127
e 63 146
e 63 153
e 63 181
e 63 183
e 63 192
e 63 193
e 63 198
e 63 212
e 64 101
e 64 114
e 64 130
e 64 136
e 64 137
e 64 147
e 64 151
e 64 158
e 64 162
e 64 168
e 64 176
e 64 177
e 64 186
e 64 188
e 64 203
e 64 204
e 64 208
e 64 210
e 65 89
e 65 95
e 65 97
e 65 117
e 65 123
e 65 135
e 65 159
e 65 168
e 65 178
e 65 194
e 65 197
e 65 211
e 65 214
e 66 85
e 66 88
e 66 92
e 66 107
e 66 109
e 66 139
e 66 145
e 66 150
e 66 159
e 66 167
e 66 172
e 66 174
e 66 191
e 66 193
e 66 201
e 66 205
e 67 78
e 67 84
e 67 87
e 67 93
e 67 95
e 67 105
e 67 106
e 67 112
e 67 127
e 67 143
e 67 149
e 67 160
e 67 161
e 67 179
e 67 207
e 67 210
e 68 107
e 68 117
e 68 122
e 68 128
e 68 141
e 68 144
e 68 152
e 68 155
e 68 181
e 68 190
e 68 195
e 68 200
e 69 80
e 69 84
e 69 104
e 69 128
e 69 130
e 69 142
e 69 145
e 69 153
e 69 176
e 69 190
e 69 209
e 69 213
e 70 82
e 70 83
e 70 94
e 70 112
e 70 118
e 70 123
e 70 169
e 70 171
e 70 175
e 70 181
e 70 182
e 70 201
e 70 212
e 71 77
e 71 101
e 71 113
e 71 124
e 71 125
e 71 126
e 71 132
e 71 133
e 71 134
e 71 140
e 71 146
e 71 157
e 71 167
e 71 169
e 71 174
e 71 184
e 71 194
e 72 76
e 72 80
e 72 81
e 72 90
e 72 110
e 72 116
e 72 124
e 72 129
e 72 132
e 72 139
e 72 143
e 72 148
e 72 158
e 72 163
e 72 172
e 72 188
e 72 196
e 73 76
e 73 86
e 73 93
e 73 96
e 73 98
e 73 99
e 73 115
e 73 116
e 73 118
e 73 125
e 73 136
e 73 150
e 73 151
e 73 164
e 73 170
e 73 175
e 73 211
e 74 77
e 74 86
e 74 87
e 74 88
e 74 89
e 74 108
e 74 120
e 74 148
e 74 149
e 74 166
e 74 171
e 74 203
e 75 79
e 75 85
e 75 96
e 75 105
e 75 120
e 75 129
e 75 138
e 75 141
e 75 161
e 75 162
e 75 164
e 75 173
e 75 187
e 75 198
e 75 202
e 75 213
e 76 80
e 76 81
e 76 115
e 76 125
e 76 132
e 76 139
e 76 148
e 76 150
e 76 151
e 76 158
e 76 163
e 76 164
e 76 170
e 76 175
e 76 196
e 76 211
e 77 86
e 77 87
e 77 88
e 77 113
e 77 124
e 77 125
e 77 133
e 77 134
e 77 148
e 77 157
e 77 166
e 77 171
e 77 174
e 77 194
e 78 83
e 78 84
e 78 90
e 78 93
e 78 95
e 78 100
e 78 102
e 78 106
e 78 111
e 78 112
e 78 119
e 78 122
e 78 127
e 78 149
e 78 161
e 78 186
e 78 207
e 79 129
e 79 134
e 79 141
e 79 144
e 79 161
e 79 164
e 79 173
e 79 179
e 79 189
e 79 202
e 80 81
e 80 128
e 80 130
e 80 132
e 80 139
e 80 142
e 80 145
e 80 148
e 80 153
e 80 158
e 80 163
e 80 196
e 81 108
e 81 113
e 81 119
e 81 132
e 81 139
e 81 148
e 81 158
e 81 163
e 81 177
e 81 178
e 81 180
e 81 196
e 81 199
e 81 206
e 82 91
e 82 94
e 82 112
e 82 123
e 82 154
e 82 157
e 82 160
e 82 163
e 82 169
e 82 171
e 82 175
e 82 182
e 82 192
e 82 200
e 82 201
e 82 209
e 83 90
e 83 100
e 83 102
e 83 111
e 83 118
e 83 119
e 83 122
e 83 181
e 83 186
e 83 212
e 84 93
e 84 95
e 84 104
e 84 106
e 84 112
e 84 127
e 84 149
e 84 161
e 84 176
e 84 190
e 84 207
e 84 209
e 84 213
e 85 88
e 85 96
e 85 105
e 85 109
e 85 120
e 85 138
e 85 145
e 85 150
e 85 159
e 85 162
e 85 167
e 85 172
e 85 187
e 85 191
e 85 198
e 85 213
e 86 87
e 86 88
e 86 93
e 86 96
e 86 98
e 86 99
e 86 116
e 86 118
e 86 136
e 86 148
e 86 166
e 86 171
e 87 88
e 87 105
e 87 143
e 87 148
e 87 160
e 87 166
e 87 171
e 87 179
e 87 210
e 88 109
e 88 145
e 88 148
e 88 150
e 88 159
e 88 166
e 88 167
e 88 171
e 88 172
e 88 191
e 89 97
e 89 108
e 89 117
e 89 120
e 89 123
e 89 149
e 89 159
e 89 194
e 89 203
e 90 100
e 90 102
e 90 110
e 90 111
e 90 116
e 90 119
e 90 122
e 90 124
e 90 129
e 90 143
e 90 172
e 90 186
e 90 188
e 91 142
e 91 154
e 91 156
e 91 157
e 91 160
e 91 163
e 91 166
e 91 184
e 91 187
e 91 192
e 91 199
e 91 200
e 91 205
e 91 209
e 92 107
e 92 110
e 92 115
e 92 139
e 92 147
e 92 154
e 92 174
e 92 189
e 92 193
e 92 195
e 92 201
e 92 205
e 92 206
e 93 95
e 93 96
e 93 98
e 93 99
e 93 106
e 93 112
e 93 116
e 93 118
e 93 127
e 93 136
e 93 149
e 93 161
e 93 207
e 94 98
e 94 102
e 94 104
e 94 109
e 94 112
e 94 123
e 94 152
e 94 156
e 94 169
e 94 171
e 94 175
e 94 182
e 94 201
e 94 202
e 94 208
e 94 214
e 95 106
e 95 112
e 95 127
e 95 135
e 95 149
e 95 161
e 95 168
e 95 178
e 95 197
e 95 207
e 95 211
e 95 214
e 96 98
e 96 99
e 96 105
e 96 116
e 96 118
e 96 120
e 96 136
e 96 138
e 96 162
e 96 187
e 96 198
e 96 213
e 97 103
e 97 117
e 97 123
e 97 126
e 97 137
e 97 155
e 97 159
e 97 165
e 97 170
e 97 194
e 97 207
e 98 99
e 98 102
e 98 104
e 98 109
e 98 116
e 98 118
e 98 136
e 98 152
e 98 156
e 98 202
e 98 208
e 98 214
e 99 111
e 99 114
e 99 116
e 99 118
e 99 121
e 99 136
e 99 165
e 99 173
e 99 185
e 99 191
e 99 197
e 100 102
e 100 103
e 100 111
e 100 119
e 100 122
e 100 131
e 100 133
e 100 135
e 100 182
e 100 183
e 100 186
e 100 196
e 100 204
e 101 114
e 101 126
e 101 130
e 101 132
e 101 140
e 101 146
e 101 151
e 101 162
e 101 167
e 101 169
e 101 177
e 101 184
e 101 188
e 101 204
e 101 208
e 102 104
e 102 109
e 102 111
e 102 119
e 102 122
e 102 152
e 102 156
e 102 186
e 102 202
e 102 208
e 102 214
e 103 126
e 103 131
e 103 133
e 103 135
e 103 137
e 103 155
e 103 165
e 103 170
e 103 182
e 103 183
e 103 196
e 103 204
e 103 207
e 104 109
e 104 152
e 104 156
e 104 176
e 104 190
e 104 202
e 104 208
e 104 209
e 104 213
e 104 214
e 105 120
e 105 138
e 105 143
e 105 160
e 105 162
e 105 179
e 105 187
e 105 198
e 105 210
e 105 213
e 106 112
e 106 127
e 106 131
e 106 138
e 106 140
e 106 149
e 106 161
e 106 180
e 106 185
e 106 207
e 106 212
e 107 117
e 107 128
e 107 139
e 107 144
e 107 152
e 107 174
e 107 181
e 107 193
e 107 200
e 107 201
e 107 205
e 108 113
e 108 119
e 108 120
e 108 149
e 108 177
e 108 178
e 108 180
e 108 199
e 108 203
e 108 206
e 109 145
e 109 150
e 109 152
e 109 156
e 109 159
e 109 167
e 109 172
e 109 191
e 109 202
e 109 208
e 109 214
e 110 115
e 110 116
e 110 124
e 110 129
e 110 143
e 110 147
e 110 154
e 110 172
e 110 188
e 110 189
e 110 195
e 110 206
e 111 114
e 111 119
e 111 121
e 111 122
e 111 165
e 111 173
e 111 185
e 111 186
e 111 191
e 111 197
e 112 123
e 112 127
e 112 149
e 112 161
e 112 169
e 112 171
e 112 175
e 112 182
e 112 201
e 112 207
e 113 119
e 113 124
e 113 125
e 113 133
e 113 134
e 113 157
e 113 174
e 113 177
e 113 178
e 113 180
e 113 194
e 113 199
e 113 206
e 114 121
e 114 130
e 114 151
e 114 162
e 114 165
e 114 173
e 114 177
e 114 185
e 114 188
e 114 191
e 114 197
e 114 204
e 114 208
e 115 125
e 115 147
e 115 150
e 115 151
e 115 154
e 115 164
e 115 170
e 115 175
e 115 189
e 115 195
e 115 206
e 115 211
e 116 118
e 116 124
e 116 129
e 116 136
e 116 143
e 116 172
e 116 188
e 117 123
e 117 128
e 117 144
e 117 152
e 117 159
e 117 181
e 117 194
e 117 200
e 118 136
e 118 181
e 118 212
e 119 122
e 119 177
e 119 178
e 119 180
e 119 186
e 119 199
e 119 206
e 120 138
e 120 149
e 120 162
e 120 187
e 120 198
e 120 203
e 120 213
e 121 127
e 121 146
e 121 153
e 121 165
e 121 173
e 121 183
e 121 185
e 121 191
e 121 192
e 121 193
e 121 197
e 121 198
e 122 141
e 122 155
e 122 186
e 122 190
e 122 195
e 123 159
e 123 169
e 123 171
e 123 175
e 123 182
e 123 194
e 123 201
e 124 125
e 124 129
e 124 133
e 124 134
e 124 143
e 124 157
e 124 172
e 124 174
e 124 188
e 124 194
e 125 133
e 125 134
e 125 150
e 125 151
e 125 157
e 125 164
e 125 170
e 125 174
e 125 175
e 125 194
e 125 211
e 126 132
e 126 137
e 126 140
e 126 146
e 126 155
e 126 165
e 126 167
e 126 169
e 126 170
e 126 184
e 126 207
e 127 146
e 127 149
e 127 153
e 127 161
e 127 183
e 127 192
e 127 193
e 127 198
e 127 207
e 128 130
e 128 142
e 128 144
e 128 145
e 128 152
e 128 153
e 128 181
e 128 200
e 129 141
e 129 143
e 129 161
e 129 164
e 129 172
e 129 173
e 129 188
e 129 202
e 130 142
e 130 145
e 130 151
e 130 153
e 130 162
e 130 177
e 130 188
e 130 204
e 130 208
e 131 133
e 131 135
e 131 138
e 131 140
e 131 180
e 131 182
e 131 183
e 131 185
e 131 196
e 131 204
e 131 212
e 132 139
e 132 140
e 132 146
e 132 148
e 132 158
e 132 163
e 132 167
e 132 169
e 132 184
e 132 196
e 133 134
e 133 135
e 133 157
e 133 174
e 133 182
e 133 183
e 133 194
e 133 196
e 133 204
e 134 144
e 134 157
e 134 174
e 134 179
e 134 189
e 134 194
e 135 168
e 135 178
e 135 182
e 135 183
e 135 196
e 135 197
e 135 204
e 135 211
e 135 214
e 136 137
e 136 147
e 136 158
e 136 168
e 136 176
e 136 186
e 136 203
e 136 210
e 137 147
e 137 155
e 137 158
e 137 165
e 137 168
e 137 170
e 137 176
e 137 186
e 137 203
e 137 207
e 137 210
e 138 140
e 138 162
e 138 180
e 138 185
e 138 187
e 138 198
e 138 212
e 138 213
e 139 148
e 139 158
e 139 163
e 139 174
e 139 193
e 139 196
e 139 201
e 139 205
e 140 146
e 140 167
e 140 169
e 140 180
e 140 184
e 140 185
e 140 212
e 141 155
e 141 161
e 141 164
e 141 173
e 141 190
e 141 195
e 141 202
e 142 145
e 142 153
e 142 156
e 142 166
e 142 184
e 142 187
e 142 199
e 142 205
e 143 160
e 143 172
e 143 179
e 143 188
e 143 210
e 144 152
e 144 179
e 144 181
e 144 189
e 144 200
e 145 150
e 145 153
e 145 159
e 145 167
e 145 172
e 145 191
e 146 153
e 146 167
e 146 169
e 146 183
e 146 184
e 146 192
e 146 193
e 146 198
e 147 154
e 147 158
e 147 168
e 147 176
e 147 186
e 147 189
e 147 195
e 147 203
e 147 206
e 147 210
e 148 158
e 148 163
e 148 166
e 148 171
e 148 196
e 149 161
e 149 203
e 149 207
e 150 151
e 150 159
e 150 164
e 150 167
e 150 170
e 150 172
e 150 175
e 150 191
e 150 211
e 151 162
e 151 164
e 151 170
e 151 175
e 151 177
e 151 188
e 151 204
e 151 208
e 151 211
e 152 156
e 152 181
e 152 200
e 152 202
e 152 208
e 152 214
e 153 183
e 153 192
e 153 193
e 153 198
e 154 157
e 154 160
e 154 163
e 154 189
e 154 192
e 154 195
e 154 200
e 154 206
e 154 209
e 155 165
e 155 170
e 155 190
e 155 195
e 155 207
e 156 166
e 156 184
e 156 187
e 156 199
e 156 202
e 156 205
e 156 208
e 156 214
e 157 160
e 157 163
e 157 174
e 157 192
e 157 194
e 157 200
e 157 209
e 158 163
e 158 168
e 158 176
e 158 186
e 158 196
e 158 203
e 158 210
e 159 167
e 159 172
e 159 191
e 159 194
e 160 163
e 160 179
e 160 192
e 160 200
e 160 209
e 160 210
e 161 164
e 161 173
e 161 202
e 161 207
e 162 177
e 162 187
e 162 188
e 162 198
e 162 204
e 162 208
e 162 213
e 163 192
e 163 196
e 163 200
e 163 209
e 164 170
e 164 173
e 164 175
e 164 202
e 164 211
e 165 170
e 165 173
e 165 185
e 165 191
e 165 197
e 165 207
e 166 171
e 166 184
e 166 187
e 166 199
e 166 205
e 167 169
e 167 172
e 167 184
e 167 191
e 168 176
e 168 178
e 168 186
e 168 197
e 168 203
e 168 210
e 168 211
e 168 214
e 169 171
e 169 175
e 169 182
e 169 184
e 169 201
e 170 175
e 170 207
e 170 211
e 171 175
e 171 182
e 171 201
e 172 188
e 172 191
e 173 185
e 173 191
e 173 197
e 173 202
e 174 193
e 174 194
e 174 201
e 174 205
e 175 182
e 175 201
e 175 211
e 176 186
e 176 190
e 176 203
e 176 209
e 176 210
e 176 213
e 177 178
e 177 180
e 177 188
e 177 199
e 177 204
e 177 206
e 177 208
e 178 180
e 178 197
e 178 199
e 178 206
e 178 211
e 178 214
e 179 189
e 179 210
e 180 185
e 180 199
e 180 206
e 180 212
e 181 200
e 181 212
e 182 183
e 182 196
e 182 201
e 182 204
e 183 192
e 183 193
e 183 196
e 183 198
e 183 204
e 184 187
e 184 199
e 184 205
e 185 191
e 185 197
e 185 212
e 186 203
e 186 210
e 187 198
e 187 199
e 187 205
e 187 213
e 188 204
e 188 208
e 189 195
e 189 206
e 190 195
e 190 209
e 190 213
e 191 197
e 192 193
e 192 198
e 192 200
e 192 209
e 193 198
e 193 201
e 193 205
e 195 206
e 196 204
e 197 211
e 197 214
e 198 213
e 199 205
e 199 206
e 200 209
e 201 205
e 202 208
e 202 214
e 203 210
e 204 208
e 208 214
e 209 213
e 211 214
